
Gurobi 12.0.1 (mac64[arm], Python) logging started Fri Feb 28 18:12:07 2025

Set parameter Username
Set parameter LicenseID to value 2629927
Set parameter LogFile to value "gurobi.log"
Academic license - for non-commercial use only - expires 2026-03-01
